p cnf 199 835
-1 -33 0
-2 -33 0
1 2 33 0
1 2 -34 0
-1 -2 -34 0
-1 2 34 0
1 -2 34 0
33 -35 0
-3 -35 0
3 -33 35 0
3 -33 -36 0
-3 33 -36 0
3 33 36 0
-3 -33 36 0
35 -37 0
-4 -37 0
4 -35 37 0
4 -35 -38 0
-4 35 -38 0
4 35 38 0
-4 -35 38 0
37 -39 0
-5 -39 0
5 -37 39 0
5 -37 -40 0
-5 37 -40 0
5 37 40 0
-5 -37 40 0
39 -41 0
-6 -41 0
6 -39 41 0
6 -39 -42 0
-6 39 -42 0
6 39 42 0
-6 -39 42 0
41 -43 0
-7 -43 0
7 -41 43 0
7 -41 -44 0
-7 41 -44 0
7 41 44 0
-7 -41 44 0
43 -45 0
-8 -45 0
8 -43 45 0
8 -43 -46 0
-8 43 -46 0
8 43 46 0
-8 -43 46 0
2 -47 0
1 -47 0
-1 -2 47 0
-1 -2 -48 0
1 2 -48 0
1 -2 48 0
-1 2 48 0
-2 -3 49 0
-3 -47 49 0
-2 -47 49 0
2 3 -49 0
3 47 -49 0
2 47 -49 0
3 -49 -50 0
2 -49 -50 0
47 -49 -50 0
-3 49 50 0
-2 49 50 0
-47 49 50 0
-2 -3 -47 50 0
2 3 47 -50 0
-3 -4 51 0
-4 -49 51 0
-3 -49 51 0
3 4 -51 0
4 49 -51 0
3 49 -51 0
4 -51 -52 0
3 -51 -52 0
49 -51 -52 0
-4 51 52 0
-3 51 52 0
-49 51 52 0
-3 -4 -49 52 0
3 4 49 -52 0
-4 -5 53 0
-5 -51 53 0
-4 -51 53 0
4 5 -53 0
5 51 -53 0
4 51 -53 0
5 -53 -54 0
4 -53 -54 0
51 -53 -54 0
-5 53 54 0
-4 53 54 0
-51 53 54 0
-4 -5 -51 54 0
4 5 51 -54 0
-5 -6 55 0
-6 -53 55 0
-5 -53 55 0
5 6 -55 0
6 53 -55 0
5 53 -55 0
6 -55 -56 0
5 -55 -56 0
53 -55 -56 0
-6 55 56 0
-5 55 56 0
-53 55 56 0
-5 -6 -53 56 0
5 6 53 -56 0
-6 -7 57 0
-7 -55 57 0
-6 -55 57 0
6 7 -57 0
7 55 -57 0
6 55 -57 0
7 -57 -58 0
6 -57 -58 0
55 -57 -58 0
-7 57 58 0
-6 57 58 0
-55 57 58 0
-6 -7 -55 58 0
6 7 55 -58 0
-7 -8 59 0
-8 -57 59 0
-7 -57 59 0
7 8 -59 0
8 57 -59 0
7 57 -59 0
8 -59 -60 0
7 -59 -60 0
57 -59 -60 0
-8 59 60 0
-7 59 60 0
-57 59 60 0
-7 -8 -57 60 0
7 8 57 -60 0
8 -61 0
59 -61 0
-8 -59 61 0
-8 -59 -62 0
8 59 -62 0
-8 59 62 0
8 -59 62 0
52 -63 0
1 -63 0
-1 -52 63 0
-1 -52 -64 0
1 52 -64 0
1 -52 64 0
-1 52 64 0
-2 -54 65 0
-54 -63 65 0
-2 -63 65 0
2 54 -65 0
54 63 -65 0
2 63 -65 0
54 -65 -66 0
2 -65 -66 0
63 -65 -66 0
-54 65 66 0
-2 65 66 0
-63 65 66 0
-2 -54 -63 66 0
2 54 63 -66 0
-3 -56 67 0
-56 -65 67 0
-3 -65 67 0
3 56 -67 0
56 65 -67 0
3 65 -67 0
56 -67 -68 0
3 -67 -68 0
65 -67 -68 0
-56 67 68 0
-3 67 68 0
-65 67 68 0
-3 -56 -65 68 0
3 56 65 -68 0
-4 -58 69 0
-58 -67 69 0
-4 -67 69 0
4 58 -69 0
58 67 -69 0
4 67 -69 0
58 -69 -70 0
4 -69 -70 0
67 -69 -70 0
-58 69 70 0
-4 69 70 0
-67 69 70 0
-4 -58 -67 70 0
4 58 67 -70 0
-5 -60 71 0
-60 -69 71 0
-5 -69 71 0
5 60 -71 0
60 69 -71 0
5 69 -71 0
60 -71 -72 0
5 -71 -72 0
69 -71 -72 0
-60 71 72 0
-5 71 72 0
-69 71 72 0
-5 -60 -69 72 0
5 60 69 -72 0
-6 -62 73 0
-62 -71 73 0
-6 -71 73 0
6 62 -73 0
62 71 -73 0
6 71 -73 0
62 -73 -74 0
6 -73 -74 0
71 -73 -74 0
-62 73 74 0
-6 73 74 0
-71 73 74 0
-6 -62 -71 74 0
6 62 71 -74 0
-7 -61 75 0
-61 -73 75 0
-7 -73 75 0
7 61 -75 0
61 73 -75 0
7 73 -75 0
61 -75 -76 0
7 -75 -76 0
73 -75 -76 0
-61 75 76 0
-7 75 76 0
-73 75 76 0
-7 -61 -73 76 0
7 61 73 -76 0
8 -77 0
75 -77 0
-8 -75 77 0
-8 -75 -78 0
8 75 -78 0
-8 75 78 0
8 -75 78 0
66 -79 0
1 -79 0
-1 -66 79 0
-1 -66 -80 0
1 66 -80 0
1 -66 80 0
-1 66 80 0
-2 -68 81 0
-68 -79 81 0
-2 -79 81 0
2 68 -81 0
68 79 -81 0
2 79 -81 0
68 -81 -82 0
2 -81 -82 0
79 -81 -82 0
-68 81 82 0
-2 81 82 0
-79 81 82 0
-2 -68 -79 82 0
2 68 79 -82 0
-3 -70 83 0
-70 -81 83 0
-3 -81 83 0
3 70 -83 0
70 81 -83 0
3 81 -83 0
70 -83 -84 0
3 -83 -84 0
81 -83 -84 0
-70 83 84 0
-3 83 84 0
-81 83 84 0
-3 -70 -81 84 0
3 70 81 -84 0
-4 -72 85 0
-72 -83 85 0
-4 -83 85 0
4 72 -85 0
72 83 -85 0
4 83 -85 0
72 -85 -86 0
4 -85 -86 0
83 -85 -86 0
-72 85 86 0
-4 85 86 0
-83 85 86 0
-4 -72 -83 86 0
4 72 83 -86 0
-5 -74 87 0
-74 -85 87 0
-5 -85 87 0
5 74 -87 0
74 85 -87 0
5 85 -87 0
74 -87 -88 0
5 -87 -88 0
85 -87 -88 0
-74 87 88 0
-5 87 88 0
-85 87 88 0
-5 -74 -85 88 0
5 74 85 -88 0
-6 -76 89 0
-76 -87 89 0
-6 -87 89 0
6 76 -89 0
76 87 -89 0
6 87 -89 0
76 -89 -90 0
6 -89 -90 0
87 -89 -90 0
-76 89 90 0
-6 89 90 0
-87 89 90 0
-6 -76 -87 90 0
6 76 87 -90 0
-7 -78 91 0
-78 -89 91 0
-7 -89 91 0
7 78 -91 0
78 89 -91 0
7 89 -91 0
78 -91 -92 0
7 -91 -92 0
89 -91 -92 0
-78 91 92 0
-7 91 92 0
-89 91 92 0
-7 -78 -89 92 0
7 78 89 -92 0
-8 -77 93 0
-77 -91 93 0
-8 -91 93 0
8 77 -93 0
77 91 -93 0
8 91 -93 0
77 -93 -94 0
8 -93 -94 0
91 -93 -94 0
-77 93 94 0
-8 93 94 0
-91 93 94 0
-8 -77 -91 94 0
8 77 91 -94 0
-1 -95 0
-48 -95 0
1 48 95 0
1 48 -96 0
-1 -48 -96 0
-1 48 96 0
1 -48 96 0
95 -97 0
-50 -97 0
50 -95 97 0
50 -95 -98 0
-50 95 -98 0
50 95 98 0
-50 -95 98 0
97 -99 0
-64 -99 0
64 -97 99 0
64 -97 -100 0
-64 97 -100 0
64 97 100 0
-64 -97 100 0
99 -101 0
-80 -101 0
80 -99 101 0
80 -99 -102 0
-80 99 -102 0
80 99 102 0
-80 -99 102 0
101 -103 0
-82 -103 0
82 -101 103 0
82 -101 -104 0
-82 101 -104 0
82 101 104 0
-82 -101 104 0
103 -105 0
-84 -105 0
84 -103 105 0
84 -103 -106 0
-84 103 -106 0
84 103 106 0
-84 -103 106 0
105 -107 0
-86 -107 0
86 -105 107 0
86 -105 -108 0
-86 105 -108 0
86 105 108 0
-86 -105 108 0
107 -109 0
-88 -109 0
88 -107 109 0
88 -107 -110 0
-88 107 -110 0
88 107 110 0
-88 -107 110 0
109 -111 0
-90 -111 0
90 -109 111 0
90 -109 -112 0
-90 109 -112 0
90 109 112 0
-90 -109 112 0
111 -113 0
-92 -113 0
92 -111 113 0
92 -111 -114 0
-92 111 -114 0
92 111 114 0
-92 -111 114 0
113 -115 0
-94 -115 0
94 -113 115 0
94 -113 -116 0
-94 113 -116 0
94 113 116 0
-94 -113 116 0
115 -117 0
-93 -117 0
93 -115 117 0
93 -115 -118 0
-93 115 -118 0
93 115 118 0
-93 -115 118 0
-9 -119 0
-10 -119 0
9 10 119 0
9 10 -120 0
-9 -10 -120 0
-9 10 120 0
9 -10 120 0
119 -121 0
-11 -121 0
11 -119 121 0
11 -119 -122 0
-11 119 -122 0
11 119 122 0
-11 -119 122 0
121 -123 0
-12 -123 0
12 -121 123 0
12 -121 -124 0
-12 121 -124 0
12 121 124 0
-12 -121 124 0
123 -125 0
-13 -125 0
13 -123 125 0
13 -123 -126 0
-13 123 -126 0
13 123 126 0
-13 -123 126 0
125 -127 0
-14 -127 0
14 -125 127 0
14 -125 -128 0
-14 125 -128 0
14 125 128 0
-14 -125 128 0
127 -129 0
-15 -129 0
15 -127 129 0
15 -127 -130 0
-15 127 -130 0
15 127 130 0
-15 -127 130 0
129 -131 0
-16 -131 0
16 -129 131 0
16 -129 -132 0
-16 129 -132 0
16 129 132 0
-16 -129 132 0
13 -133 0
9 -133 0
-9 -13 133 0
-9 -13 -134 0
9 13 -134 0
9 -13 134 0
-9 13 134 0
-10 -14 135 0
-14 -133 135 0
-10 -133 135 0
10 14 -135 0
14 133 -135 0
10 133 -135 0
14 -135 -136 0
10 -135 -136 0
133 -135 -136 0
-14 135 136 0
-10 135 136 0
-133 135 136 0
-10 -14 -133 136 0
10 14 133 -136 0
-11 -15 137 0
-15 -135 137 0
-11 -135 137 0
11 15 -137 0
15 135 -137 0
11 135 -137 0
15 -137 -138 0
11 -137 -138 0
135 -137 -138 0
-15 137 138 0
-11 137 138 0
-135 137 138 0
-11 -15 -135 138 0
11 15 135 -138 0
-12 -16 139 0
-16 -137 139 0
-12 -137 139 0
12 16 -139 0
16 137 -139 0
12 137 -139 0
16 -139 -140 0
12 -139 -140 0
137 -139 -140 0
-16 139 140 0
-12 139 140 0
-137 139 140 0
-12 -16 -137 140 0
12 16 137 -140 0
13 -141 0
139 -141 0
-13 -139 141 0
-13 -139 -142 0
13 139 -142 0
-13 139 142 0
13 -139 142 0
14 -143 0
141 -143 0
-14 -141 143 0
-14 -141 -144 0
14 141 -144 0
-14 141 144 0
14 -141 144 0
15 -145 0
143 -145 0
-15 -143 145 0
-15 -143 -146 0
15 143 -146 0
-15 143 146 0
15 -143 146 0
16 -147 0
145 -147 0
-16 -145 147 0
-16 -145 -148 0
16 145 -148 0
-16 145 148 0
16 -145 148 0
-9 -149 0
-10 -149 0
9 10 149 0
9 10 -150 0
-9 -10 -150 0
-9 10 150 0
9 -10 150 0
149 -151 0
-11 -151 0
11 -149 151 0
11 -149 -152 0
-11 149 -152 0
11 149 152 0
-11 -149 152 0
151 -153 0
-12 -153 0
12 -151 153 0
12 -151 -154 0
-12 151 -154 0
12 151 154 0
-12 -151 154 0
153 -155 0
-134 -155 0
134 -153 155 0
134 -153 -156 0
-134 153 -156 0
134 153 156 0
-134 -153 156 0
155 -157 0
-136 -157 0
136 -155 157 0
136 -155 -158 0
-136 155 -158 0
136 155 158 0
-136 -155 158 0
157 -159 0
-138 -159 0
138 -157 159 0
138 -157 -160 0
-138 157 -160 0
138 157 160 0
-138 -157 160 0
159 -161 0
-140 -161 0
140 -159 161 0
140 -159 -162 0
-140 159 -162 0
140 159 162 0
-140 -159 162 0
161 -163 0
-142 -163 0
142 -161 163 0
142 -161 -164 0
-142 161 -164 0
142 161 164 0
-142 -161 164 0
163 -165 0
-144 -165 0
144 -163 165 0
144 -163 -166 0
-144 163 -166 0
144 163 166 0
-144 -163 166 0
165 -167 0
-146 -167 0
146 -165 167 0
146 -165 -168 0
-146 165 -168 0
146 165 168 0
-146 -165 168 0
167 -169 0
-148 -169 0
148 -167 169 0
148 -167 -170 0
-148 167 -170 0
148 167 170 0
-148 -167 170 0
169 -171 0
-147 -171 0
147 -169 171 0
147 -169 -172 0
-147 169 -172 0
147 169 172 0
-147 -169 172 0
1 -173 0
9 -173 0
-1 -9 173 0
-1 -9 -174 0
1 9 -174 0
-1 9 174 0
1 -9 174 0
-10 -48 175 0
-48 -173 175 0
-10 -173 175 0
10 48 -175 0
48 173 -175 0
10 173 -175 0
48 -175 -176 0
10 -175 -176 0
173 -175 -176 0
-48 175 176 0
-10 175 176 0
-173 175 176 0
-10 -48 -173 176 0
10 48 173 -176 0
-11 -50 177 0
-50 -175 177 0
-11 -175 177 0
11 50 -177 0
50 175 -177 0
11 175 -177 0
50 -177 -178 0
11 -177 -178 0
175 -177 -178 0
-50 177 178 0
-11 177 178 0
-175 177 178 0
-11 -50 -175 178 0
11 50 175 -178 0
-12 -64 179 0
-64 -177 179 0
-12 -177 179 0
12 64 -179 0
64 177 -179 0
12 177 -179 0
64 -179 -180 0
12 -179 -180 0
177 -179 -180 0
-64 179 180 0
-12 179 180 0
-177 179 180 0
-12 -64 -177 180 0
12 64 177 -180 0
-80 -134 181 0
-80 -179 181 0
-134 -179 181 0
80 134 -181 0
80 179 -181 0
134 179 -181 0
80 -181 -182 0
134 -181 -182 0
179 -181 -182 0
-80 181 182 0
-134 181 182 0
-179 181 182 0
-80 -134 -179 182 0
80 134 179 -182 0
-82 -136 183 0
-82 -181 183 0
-136 -181 183 0
82 136 -183 0
82 181 -183 0
136 181 -183 0
82 -183 -184 0
136 -183 -184 0
181 -183 -184 0
-82 183 184 0
-136 183 184 0
-181 183 184 0
-82 -136 -181 184 0
82 136 181 -184 0
-84 -138 185 0
-84 -183 185 0
-138 -183 185 0
84 138 -185 0
84 183 -185 0
138 183 -185 0
84 -185 -186 0
138 -185 -186 0
183 -185 -186 0
-84 185 186 0
-138 185 186 0
-183 185 186 0
-84 -138 -183 186 0
84 138 183 -186 0
-86 -140 187 0
-86 -185 187 0
-140 -185 187 0
86 140 -187 0
86 185 -187 0
140 185 -187 0
86 -187 -188 0
140 -187 -188 0
185 -187 -188 0
-86 187 188 0
-140 187 188 0
-185 187 188 0
-86 -140 -185 188 0
86 140 185 -188 0
-88 -142 189 0
-88 -187 189 0
-142 -187 189 0
88 142 -189 0
88 187 -189 0
142 187 -189 0
88 -189 -190 0
142 -189 -190 0
187 -189 -190 0
-88 189 190 0
-142 189 190 0
-187 189 190 0
-88 -142 -187 190 0
88 142 187 -190 0
-90 -144 191 0
-90 -189 191 0
-144 -189 191 0
90 144 -191 0
90 189 -191 0
144 189 -191 0
90 -191 -192 0
144 -191 -192 0
189 -191 -192 0
-90 191 192 0
-144 191 192 0
-189 191 192 0
-90 -144 -189 192 0
90 144 189 -192 0
-92 -146 193 0
-92 -191 193 0
-146 -191 193 0
92 146 -193 0
92 191 -193 0
146 191 -193 0
92 -193 -194 0
146 -193 -194 0
191 -193 -194 0
-92 193 194 0
-146 193 194 0
-191 193 194 0
-92 -146 -191 194 0
92 146 191 -194 0
-94 -148 195 0
-94 -193 195 0
-148 -193 195 0
94 148 -195 0
94 193 -195 0
148 193 -195 0
94 -195 -196 0
148 -195 -196 0
193 -195 -196 0
-94 195 196 0
-148 195 196 0
-193 195 196 0
-94 -148 -193 196 0
94 148 193 -196 0
-93 -147 197 0
-93 -195 197 0
-147 -195 197 0
93 147 -197 0
93 195 -197 0
147 195 -197 0
93 -197 -198 0
147 -197 -198 0
195 -197 -198 0
-93 197 198 0
-147 197 198 0
-195 197 198 0
-93 -147 -195 198 0
93 147 195 -198 0
-174 -199 0
-176 -199 0
-178 -199 0
180 -199 0
-182 -199 0
184 -199 0
-186 -199 0
188 -199 0
-190 -199 0
-192 -199 0
-194 -199 0
-196 -199 0
-197 -199 0
-198 -199 0
174 176 178 -180 182 -184 186 -188 190 192 194 196 197 198 199 0
199 0
c main::$tmp::return_value_nondet_char!0@1#1 17 18 19 20 21 22 23 24
c symex::nondet1 9 10 11 12 13 14 15 16
c symex::nondet0 1 2 3 4 5 6 7 8
c main::$tmp::return_value_nondet_char$0!0@1#2 9 10 11 12 13 14 15 16
c __CPROVER_rounding_mode!0#1 FALSE FALSE FALSE FALSE FALSE FALSE FALSE FALSE FALSE FALSE FALSE FALSE FALSE FALSE FALSE FALSE FALSE FALSE FALSE FALSE FALSE FALSE FALSE FALSE FALSE FALSE FALSE FALSE FALSE FALSE FALSE FALSE
c main::$tmp::return_value_nondet_char$0!0@1#1 25 26 27 28 29 30 31 32
c __CPROVER_memory_leak#1 FALSE FALSE FALSE FALSE FALSE FALSE FALSE FALSE FALSE FALSE FALSE FALSE FALSE FALSE FALSE FALSE FALSE FALSE FALSE FALSE FALSE FALSE FALSE FALSE FALSE FALSE FALSE FALSE FALSE FALSE FALSE FALSE FALSE FALSE FALSE FALSE FALSE FALSE FALSE FALSE FALSE FALSE FALSE FALSE FALSE FALSE FALSE FALSE FALSE FALSE FALSE FALSE FALSE FALSE FALSE FALSE FALSE FALSE FALSE FALSE FALSE FALSE FALSE FALSE
c __CPROVER_max_malloc_size#1 FALSE FALSE FALSE FALSE FALSE FALSE FALSE FALSE FALSE FALSE FALSE FALSE FALSE FALSE FALSE FALSE FALSE FALSE FALSE FALSE FALSE FALSE FALSE FALSE FALSE FALSE FALSE FALSE FALSE FALSE FALSE FALSE FALSE FALSE FALSE FALSE FALSE FALSE FALSE FALSE FALSE FALSE FALSE FALSE FALSE FALSE FALSE FALSE FALSE FALSE FALSE FALSE FALSE FALSE FALSE TRUE FALSE FALSE FALSE FALSE FALSE FALSE FALSE FALSE
c __CPROVER_deallocated#1 FALSE FALSE FALSE FALSE FALSE FALSE FALSE FALSE FALSE FALSE FALSE FALSE FALSE FALSE FALSE FALSE FALSE FALSE FALSE FALSE FALSE FALSE FALSE FALSE FALSE FALSE FALSE FALSE FALSE FALSE FALSE FALSE FALSE FALSE FALSE FALSE FALSE FALSE FALSE FALSE FALSE FALSE FALSE FALSE FALSE FALSE FALSE FALSE FALSE FALSE FALSE FALSE FALSE FALSE FALSE FALSE FALSE FALSE FALSE FALSE FALSE FALSE FALSE FALSE
c main::$tmp::return_value_nondet_char!0@1#2 1 2 3 4 5 6 7 8
c __CPROVER_dead_object#1 FALSE FALSE FALSE FALSE FALSE FALSE FALSE FALSE FALSE FALSE FALSE FALSE FALSE FALSE FALSE FALSE FALSE FALSE FALSE FALSE FALSE FALSE FALSE FALSE FALSE FALSE FALSE FALSE FALSE FALSE FALSE FALSE FALSE FALSE FALSE FALSE FALSE FALSE FALSE FALSE FALSE FALSE FALSE FALSE FALSE FALSE FALSE FALSE FALSE FALSE FALSE FALSE FALSE FALSE FALSE FALSE FALSE FALSE FALSE FALSE FALSE FALSE FALSE FALSE
